100
50
15
0 1 563
1 193 807
2 584 479
3 349 895
4 822 745
5 173 858
6 709 513
7 303 14
8 91 364
9 147 165
10 987 445
11 118 4
12 8 377
13 531 570
14 601 606
15 166 662
16 450 351
17 56 607
18 782 801
19 519 301
20 875 725
21 954 924
22 538 142
23 461 235
24 861 209
25 778 842
26 995 998
27 610 392
28 265 296
29 839 23
30 375 92
31 676 56
32 8 917
33 275 272
34 587 690
35 836 725
36 484 205
37 742 467
38 457 948
39 743 108
40 598 384
41 734 608
42 571 360
43 151 224
44 424 802
45 516 988
46 750 345
47 168 656
48 491 63
49 699 504